RobustCbss/EGSTP_runtime_files/empty-32-32_p_safe_0.8_typeOfTest_1_mEgtsp.gtsp
NAME : mEgtspf
TYPE : AGTSP
DIMENSION : 90
GTSP_SETS : 30
EDGE_WEIGHT_TYPE : EXPLICIT
EDGE_WEIGHT_FORMAT : FULL_MATRIX
EDGE_WEIGHT_SECTION
0 0 0 0 0 0 0 0 0 0 19 20 19 18 45 46 45 44 42 43 42 41 21 22 21 20 29 30 29 28 34 35 34 33 26 27 26 25 20 21 20 19 29 30 29 28 40 41 40 39 40 41 40 39 55 56 55 54 28 29 28 27 8 9 8 7 51 52 51 50 31 32 31 30 6 7 6 5 39 40 39 38 18 19 18 17 13 14 13 12
0 0 0 0 0 0 0 0 0 0 15 14 15 16 15 16 17 16 12 13 14 13 13 12 13 14 9 10 11 10 10 11 10 9 12 13 12 11 14 13 14 15 7 8 9 8 10 11 12 11 20 21 22 21 25 26 27 26 8 9 10 9 26 25 26 27 21 22 23 22 5 6 5 4 28 27 28 29 11 12 13 12 -999984 -999985 -999984 -999983 21 20 21 22
0 0 0 0 0 0 0 0 0 0 35 34 35 36 25 26 27 26 22 23 24 23 19 18 19 20 29 28 29 30 14 15 16 15 12 11 12 13 18 17 18 19 27 26 27 28 28 27 28 29 40 39 40 41 35 36 37 36 28 27 28 29 26 25 26 27 31 32 33 32 19 18 19 20 18 17 18 19 31 30 31 32 20 19 20 21 -999969 -999970 -999969 -999968
0 0 0 0 0 0 0 0 0 0 8 7 6 7 28 29 30 29 25 26 27 26 24 23 22 23 12 13 12 11 29 28 27 28 31 30 29 30 25 24 23 24 16 15 14 15 23 24 25 24 23 24 25 24 38 39 40 39 15 14 13 14 17 16 15 16 34 35 36 35 24 23 22 23 -999975 -999976 -999977 -999976 22 23 24 23 23 22 21 22 12 11 10 11
0 0 0 0 0 0 0 0 0 0 22 21 22 23 22 23 24 23 19 20 21 20 6 5 6 7 16 15 16 17 11 12 13 12 7 6 5 6 7 6 7 8 14 13 14 15 17 18 19 18 27 26 27 28 32 33 34 33 15 14 15 16 19 18 19 20 28 29 30 29 8 9 10 9 21 20 21 22 16 17 18 17 9 8 9 10 18 17 18 19
0 0 0 0 0 0 0 0 0 0 8 7 6 7 24 25 24 23 21 22 21 20 20 21 20 19 10 11 10 9 25 26 25 24 27 28 27 26 21 22 21 20 12 13 12 11 19 20 19 18 19 20 19 18 34 35 34 33 11 12 11 10 19 18 17 18 30 31 30 29 20 21 20 19 21 20 19 20 18 19 18 17 19 20 19 18 14 13 12 13
0 0 0 0 0 0 0 0 0 0 12 13 14 13 28 29 28 27 25 26 25 24 8 9 8 7 12 13 12 11 17 18 17 16 15 16 15 14 9 10 9 8 12 13 12 11 23 24 23 22 23 24 23 22 38 39 38 37 11 12 11 10 15 14 13 14 34 35 34 33 14 15 14 13 17 16 15 16 22 23 22 21 7 8 7 6 8 7 8 9
0 0 0 0 0 0 0 0 0 0 28 27 28 29 12 13 14 13 7 8 9 8 26 25 26 27 18 17 18 19 13 12 13 14 21 20 21 22 27 26 27 28 18 17 18 19 17 18 19 18 29 30 31 30 12 13 14 13 19 18 19 20 39 38 39 40 10 11 12 11 16 15 16 17 41 40 41 42 -999980 -999979 -999978 -999979 29 28 29 30 34 33 34 35
0 0 0 0 0 0 0 0 0 0 28 29 30 29 38 39 38 37 35 36 35 34 12 13 14 13 22 23 24 23 27 28 27 26 19 20 19 18 11 12 13 12 20 21 22 21 33 34 33 32 1000000 1000000 1000000 1000000 48 49 48 47 21 22 23 22 19 20 21 20 44 45 44 43 24 25 24 23 11 12 13 12 32 33 32 31 13 14 15 14 24 25 26 25
0 0 0 0 0 0 0 0 0 0 11 12 11 10 27 28 27 26 28 29 28 27 27 28 27 26 17 18 17 16 32 33 32 31 34 35 34 33 28 29 28 27 19 20 19 18 22 23 22 21 22 23 22 21 37 38 37 36 18 19 18 17 20 21 20 19 33 34 33 32 27 28 27 26 28 29 28 27 21 22 21 20 26 27 26 25 15 16 15 14
0 0 0 0 0 0 0 0 0 0 0 0 0 0 28 29 28 27 25 26 25 24 20 19 18 19 12 13 12 11 25 24 23 24 27 26 25 26 21 20 19 20 12 13 12 11 23 24 23 22 23 24 23 22 38 39 38 37 11 12 11 10 15 14 13 14 34 35 34 33 20 19 18 19 21 20 19 20 22 23 22 21 19 18 17 18 10 9 8 9
0 0 0 0 0 0 0 0 0 0 0 0 0 0 29 30 29 28 26 27 26 25 19 20 19 18 13 14 13 12 24 25 24 23 26 27 26 25 20 21 20 19 13 14 13 12 24 25 24 23 24 25 24 23 39 40 39 38 12 13 12 11 14 13 12 13 35 36 35 34 19 20 19 18 20 21 20 19 23 24 23 22 18 19 18 17 9 8 7 8
0 0 0 0 0 0 0 0 0 0 0 0 0 0 28 29 30 29 25 26 27 26 18 19 18 17 12 13 14 13 23 24 23 22 25 26 25 24 19 20 19 18 12 13 14 13 23 24 25 24 23 24 25 24 38 39 40 39 11 12 13 12 13 12 13 14 34 35 36 35 18 19 18 17 19 20 19 18 22 23 24 23 17 18 17 16 8 7 8 9
0 0 0 0 0 0 0 0 0 0 0 0 0 0 27 28 29 28 24 25 26 25 19 18 17 18 11 12 13 12 24 23 22 23 26 25 24 25 20 19 18 19 11 12 13 12 22 23 24 23 22 23 24 23 37 38 39 38 10 11 12 11 14 13 14 15 33 34 35 34 19 18 17 18 20 19 18 19 21 22 23 22 18 17 16 17 9 8 9 10
0 0 0 0 0 0 0 0 0 0 30 29 28 29 0 0 0 0 9 8 7 8 28 27 26 27 -999980 -999981 -999982 -999981 15 14 13 14 23 22 21 22 29 28 27 28 20 19 18 19 7 6 7 8 19 18 19 20 12 13 12 11 21 20 19 20 41 40 39 40 8 9 8 7 18 17 16 17 43 42 41 42 10 9 10 11 31 30 29 30 36 35 34 35
0 0 0 0 0 0 0 0 0 0 29 28 27 28 0 0 0 0 8 9 8 7 27 26 25 26 -999981 -999982 -999983 -999982 14 13 12 13 22 21 20 21 28 27 26 27 19 18 17 18 6 5 6 7 18 19 20 19 13 14 13 12 20 19 18 19 40 39 38 39 9 10 9 8 17 16 15 16 42 41 40 41 9 10 11 10 30 29 28 29 35 34 33 34
0 0 0 0 0 0 0 0 0 0 28 27 28 29 0 0 0 0 7 8 7 6 26 25 26 27 -999982 -999983 -999982 -999981 13 12 13 14 21 20 21 22 27 26 27 28 18 17 18 19 7 6 7 8 19 20 21 20 12 13 14 13 19 18 19 20 39 38 39 40 8 9 10 9 16 15 16 17 41 40 41 42 10 11 12 11 29 28 29 30 34 33 34 35
0 0 0 0 0 0 0 0 0 0 29 28 29 30 0 0 0 0 8 7 6 7 27 26 27 28 -999981 -999982 -999981 -999980 14 13 14 15 22 21 22 23 28 27 28 29 19 18 19 20 8 7 8 9 20 19 20 21 11 12 13 12 20 19 20 21 40 39 40 41 7 8 9 8 17 16 17 18 42 41 42 43 11 10 11 12 30 29 30 31 35 34 35 36
0 0 0 0 0 0 0 0 0 0 27 26 25 26 7 6 7 8 0 0 0 0 25 24 23 24 17 16 15 16 12 11 10 11 20 19 18 19 26 25 24 25 17 16 15 16 12 11 12 13 24 23 24 25 15 16 15 14 18 17 16 17 38 37 36 37 11 12 11 10 15 14 13 14 40 39 38 39 15 14 15 16 28 27 26 27 33 32 31 32
0 0 0 0 0 0 0 0 0 0 26 25 24 25 6 7 8 7 0 0 0 0 24 23 22 23 16 15 14 15 11 10 9 10 19 18 17 18 25 24 23 24 16 15 14 15 11 12 13 12 23 24 25 24 16 17 16 15 17 16 15 16 37 36 35 36 12 13 12 11 14 13 12 13 39 38 37 38 14 15 16 15 27 26 25 26 32 31 30 31
0 0 0 0 0 0 0 0 0 0 25 24 25 26 7 8 9 8 0 0 0 0 23 22 23 24 15 14 15 16 10 9 10 11 18 17 18 19 24 23 24 25 15 14 15 16 12 13 14 13 24 25 26 25 15 16 17 16 16 15 16 17 36 35 36 37 11 12 13 12 13 12 13 14 38 37 38 39 15 16 17 16 26 25 26 27 31 30 31 32
0 0 0 0 0 0 0 0 0 0 26 25 26 27 8 7 8 9 0 0 0 0 24 23 24 25 16 15 16 17 11 10 11 12 19 18 19 20 25 24 25 26 16 15 16 17 13 12 13 14 25 24 25 26 14 15 16 15 17 16 17 18 37 36 37 38 10 11 12 11 14 13 14 15 39 38 39 40 16 15 16 17 27 26 27 28 32 31 32 33
0 0 0 0 0 0 0 0 0 0 18 17 18 19 26 27 26 25 23 24 23 22 0 0 0 0 12 11 12 13 15 16 15 14 11 10 9 10 5 4 3 4 8 9 10 9 21 22 21 20 23 22 23 24 36 37 36 35 11 10 11 12 17 16 15 16 -999968 -999967 -999968 -999969 12 13 12 11 19 18 17 18 20 21 20 19 7 6 5 6 14 13 14 15
0 0 0 0 0 0 0 0 0 0 17 18 19 18 27 28 27 26 24 25 24 23 0 0 0 0 11 12 13 12 16 17 16 15 10 11 10 9 4 3 2 3 9 10 11 10 22 23 22 21 22 23 24 23 37 38 37 36 10 11 12 11 16 15 14 15 -999967 -999966 -999967 -999968 13 14 13 12 18 17 16 17 21 22 21 20 6 5 4 5 13 14 15 14
0 0 0 0 0 0 0 0 0 0 18 19 20 19 26 27 28 27 23 24 25 24 0 0 0 0 12 13 14 13 15 16 17 16 9 10 9 8 3 2 1 2 10 11 12 11 21 22 23 22 23 24 25 24 36 37 38 37 11 12 13 12 15 14 15 16 -999968 -999967 -999966 -999967 12 13 14 13 17 16 17 18 20 21 22 21 5 4 5 6 14 15 16 15
0 0 0 0 0 0 0 0 0 0 19 18 19 20 25 26 27 26 22 23 24 23 0 0 0 0 13 12 13 14 14 15 16 15 10 9 8 9 4 3 2 3 9 10 11 10 20 21 22 21 24 23 24 25 35 36 37 36 12 11 12 13 16 15 16 17 -999969 -999968 -999967 -999968 11 12 13 12 18 17 18 19 19 20 21 20 6 5 6 7 15 14 15 16
0 0 0 0 0 0 0 0 0 0 14 13 12 13 18 19 18 17 15 16 15 14 14 13 12 13 0 0 0 0 19 18 17 18 21 20 19 20 15 14 13 14 6 5 4 5 13 14 13 12 11 12 13 12 28 29 28 27 5 4 3 4 -999975 -999976 -999977 -999976 24 25 24 23 14 13 12 13 27 26 25 26 12 13 12 11 15 14 13 14 20 19 18 19
0 0 0 0 0 0 0 0 0 0 13 12 11 12 19 20 19 18 16 17 16 15 13 14 13 12 0 0 0 0 18 19 18 17 20 21 20 19 14 15 14 13 5 6 5 4 14 15 14 13 12 13 14 13 29 30 29 28 4 3 2 3 -999976 -999977 -999978 -999977 25 26 25 24 13 14 13 12 26 25 24 25 13 14 13 12 14 13 12 13 19 18 17 18
0 0 0 0 0 0 0 0 0 0 12 11 12 13 18 19 20 19 15 16 17 16 12 13 12 11 0 0 0 0 17 18 17 16 19 20 19 18 13 14 13 12 4 5 4 3 13 14 15 14 13 14 15 14 28 29 30 29 3 2 1 2 -999977 -999978 -999977 -999976 24 25 26 25 12 13 12 11 25 24 25 26 12 13 14 13 13 12 13 14 18 17 18 19
0 0 0 0 0 0 0 0 0 0 13 12 13 14 17 18 19 18 14 15 16 15 13 12 11 12 0 0 0 0 18 17 16 17 20 19 18 19 14 13 12 13 5 4 3 4 12 13 14 13 12 13 14 13 27 28 29 28 4 3 2 3 -999976 -999977 -999976 -999975 23 24 25 24 13 12 11 12 26 25 26 27 11 12 13 12 14 13 14 15 19 18 19 20
0 0 0 0 0 0 0 0 0 0 23 22 23 24 -999987 -999986 -999987 -999988 10 11 10 9 17 16 15 16 17 16 17 18 0 0 0 0 12 11 10 11 18 17 16 17 15 14 15 16 16 15 16 17 28 27 28 29 23 24 23 22 16 15 16 17 30 29 28 29 19 20 19 18 7 6 7 8 32 31 30 31 19 18 19 20 20 19 18 19 25 24 23 24
0 0 0 0 0 0 0 0 0 0 22 23 24 23 -999986 -999985 -999986 -999987 11 12 11 10 16 15 14 15 16 17 18 17 0 0 0 0 11 10 9 10 17 16 15 16 14 15 16 15 15 16 17 16 27 28 29 28 24 25 24 23 15 16 17 16 29 28 27 28 20 21 20 19 6 7 8 7 31 30 29 30 18 19 20 19 19 18 17 18 24 23 22 23
0 0 0 0 0 0 0 0 0 0 23 24 25 24 -999987 -999986 -999985 -999986 10 11 12 11 15 14 15 16 17 18 19 18 0 0 0 0 10 9 10 11 16 15 16 17 15 16 17 16 16 17 18 17 28 29 30 29 23 24 25 24 16 17 18 17 28 27 28 29 19 20 21 20 7 8 9 8 30 29 30 31 19 20 21 20 18 17 18 19 23 22 23 24
0 0 0 0 0 0 0 0 0 0 24 23 24 25 -999988 -999987 -999986 -999987 9 10 11 10 16 15 16 17 18 17 18 19 0 0 0 0 11 10 11 12 17 16 17 18 16 15 16 17 17 16 17 18 29 28 29 30 22 23 24 23 17 16 17 18 29 28 29 30 18 19 20 19 8 7 8 9 31 30 31 32 20 19 20 21 19 18 19 20 24 23 24 25
0 0 0 0 0 0 0 0 0 0 25 24 25 26 21 22 21 20 18 19 18 17 -999991 -999992 -999991 -999990 19 18 19 20 10 11 10 9 0 0 0 0 8 7 8 9 17 16 17 18 18 17 18 19 30 29 30 31 31 32 31 30 18 17 18 19 22 21 20 21 27 28 27 26 9 8 9 10 24 23 22 23 21 20 21 22 10 9 10 11 21 20 21 22
0 0 0 0 0 0 0 0 0 0 24 25 26 25 22 23 22 21 19 20 19 18 -999992 -999991 -999990 -999991 18 19 20 19 11 12 11 10 0 0 0 0 7 6 7 8 16 17 18 17 17 18 19 18 29 30 31 30 32 33 32 31 17 18 19 18 21 20 19 20 28 29 28 27 8 9 10 9 23 22 21 22 20 21 22 21 9 8 9 10 20 21 22 21
0 0 0 0 0 0 0 0 0 0 25 26 27 26 21 22 23 22 18 19 20 19 -999991 -999990 -999989 -999990 19 20 21 20 10 11 12 11 0 0 0 0 8 7 8 9 17 18 19 18 18 19 20 19 30 31 32 31 31 32 33 32 18 19 20 19 20 19 20 21 27 28 29 28 9 10 11 10 22 21 22 23 21 22 23 22 10 9 10 11 21 22 23 22
0 0 0 0 0 0 0 0 0 0 26 25 26 27 20 21 22 21 17 18 19 18 -999990 -999991 -999990 -999989 20 19 20 21 9 10 11 10 0 0 0 0 9 8 9 10 18 17 18 19 19 18 19 20 31 30 31 32 30 31 32 31 19 18 19 20 21 20 21 22 26 27 28 27 10 9 10 11 23 22 23 24 22 21 22 23 11 10 11 12 22 21 22 23
0 0 0 0 0 0 0 0 0 0 19 18 19 20 27 28 27 26 24 25 24 23 1 2 3 2 13 12 13 14 16 17 16 15 8 9 8 7 0 0 0 0 9 10 11 10 22 23 22 21 24 23 24 25 37 38 37 36 12 11 12 13 16 15 14 15 33 34 33 32 13 14 13 12 18 17 16 17 21 22 21 20 4 3 4 5 15 14 15 16
0 0 0 0 0 0 0 0 0 0 18 19 20 19 28 29 28 27 25 26 25 24 2 3 4 3 12 13 14 13 17 18 17 16 9 10 9 8 0 0 0 0 10 11 12 11 23 24 23 22 23 24 25 24 38 39 38 37 11 12 13 12 15 14 13 14 34 35 34 33 14 15 14 13 17 16 15 16 22 23 22 21 3 2 3 4 14 15 16 15
0 0 0 0 0 0 0 0 0 0 19 20 21 20 27 28 29 28 24 25 26 25 3 4 5 4 13 14 15 14 16 17 18 17 8 9 8 7 0 0 0 0 11 12 13 12 22 23 24 23 24 25 26 25 37 38 39 38 12 13 14 13 14 13 14 15 33 34 35 34 13 14 15 14 16 15 16 17 21 22 23 22 4 3 4 5 15 16 17 16
0 0 0 0 0 0 0 0 0 0 20 19 20 21 26 27 28 27 23 24 25 24 2 3 4 3 14 13 14 15 15 16 17 16 7 8 7 6 0 0 0 0 10 11 12 11 21 22 23 22 25 24 25 26 36 37 38 37 13 12 13 14 15 14 15 16 32 33 34 33 12 13 14 13 17 16 17 18 20 21 22 21 5 4 5 6 16 15 16 17
0 0 0 0 0 0 0 0 0 0 14 13 12 13 18 19 18 17 15 16 15 14 12 11 10 11 4 3 4 5 17 16 15 16 19 18 17 18 -999987 -999988 -999989 -999988 0 0 0 0 13 14 13 12 15 14 15 16 28 29 28 27 3 2 3 4 25 24 23 24 24 25 24 23 12 11 10 11 27 26 25 26 12 13 12 11 15 14 13 14 20 19 18 19
0 0 0 0 0 0 0 0 0 0 13 12 11 12 19 20 19 18 16 17 16 15 11 10 9 10 3 4 5 4 16 17 16 15 18 19 18 17 -999988 -999989 -999990 -999989 0 0 0 0 14 15 14 13 14 15 16 15 29 30 29 28 2 1 2 3 24 23 22 23 25 26 25 24 11 12 11 10 26 25 24 25 13 14 13 12 14 13 12 13 19 18 17 18
0 0 0 0 0 0 0 0 0 0 12 11 12 13 18 19 20 19 15 16 17 16 10 9 8 9 4 5 6 5 15 16 15 14 17 18 17 16 -999989 -999990 -999991 -999990 0 0 0 0 13 14 15 14 15 16 17 16 28 29 30 29 3 2 3 4 23 22 23 24 24 25 26 25 10 11 10 9 25 24 25 26 12 13 14 13 13 12 13 14 18 17 18 19
0 0 0 0 0 0 0 0 0 0 13 12 13 14 17 18 19 18 14 15 16 15 11 10 9 10 5 4 5 6 16 15 14 15 18 17 16 17 -999988 -999989 -999990 -999989 0 0 0 0 12 13 14 13 16 15 16 17 27 28 29 28 4 3 4 5 24 23 24 25 23 24 25 24 11 10 9 10 26 25 26 27 11 12 13 12 14 13 14 15 19 18 19 20
0 0 0 0 0 0 0 0 0 0 25 24 23 24 7 8 7 6 14 13 12 13 23 22 21 22 15 14 13 14 18 17 16 17 -999980 -999981 -999982 -999981 24 23 22 23 15 14 13 14 0 0 0 0 14 13 14 15 17 18 17 16 16 15 14 15 36 35 34 35 13 14 13 12 13 12 11 12 38 37 36 37 5 4 5 6 26 25 24 25 31 30 29 30
0 0 0 0 0 0 0 0 0 0 24 23 22 23 8 9 8 7 13 14 13 12 22 21 20 21 14 13 12 13 17 18 17 16 -999981 -999980 -999981 -999982 23 22 21 22 14 13 12 13 0 0 0 0 13 14 15 14 18 19 18 17 15 14 13 14 35 34 33 34 14 15 14 13 12 11 10 11 37 36 35 36 4 5 6 5 25 24 23 24 30 29 28 29
0 0 0 0 0 0 0 0 0 0 23 22 23 24 7 8 7 6 12 13 12 11 21 20 21 22 13 12 13 14 16 17 16 15 -999982 -999981 -999982 -999983 22 21 22 23 13 12 13 14 0 0 0 0 14 15 16 15 17 18 19 18 14 13 14 15 34 33 34 35 13 14 15 14 11 10 9 10 36 35 36 37 5 6 7 6 24 23 24 25 29 28 29 30
0 0 0 0 0 0 0 0 0 0 24 23 24 25 6 7 6 5 13 12 11 12 22 21 22 23 14 13 14 15 17 16 15 16 -999981 -999982 -999983 -999982 23 22 23 24 14 13 14 15 0 0 0 0 15 14 15 16 16 17 18 17 15 14 15 16 35 34 35 36 12 13 14 13 12 11 10 11 37 36 37 38 6 5 6 7 25 24 25 26 30 29 30 31
0 0 0 0 0 0 0 0 0 0 25 24 23 24 21 20 19 20 26 25 24 25 25 24 23 24 15 14 13 14 30 29 28 29 32 31 30 31 26 25 24 25 17 16 15 16 16 15 14 15 0 0 0 0 27 26 25 26 16 15 14 15 36 35 34 35 23 22 21 22 25 24 23 24 38 37 36 37 13 12 11 12 26 25 24 25 31 30 29 30
0 0 0 0 0 0 0 0 0 0 24 23 22 23 20 21 20 19 25 26 25 24 24 25 24 23 14 13 12 13 29 30 29 28 31 32 31 30 25 26 25 24 16 17 16 15 15 16 15 14 0 0 0 0 26 27 26 25 15 14 13 14 35 34 33 34 22 23 22 21 24 25 24 23 37 36 35 36 12 13 12 11 25 24 23 24 30 29 28 29
0 0 0 0 0 0 0 0 0 0 23 22 23 24 19 20 19 18 24 25 24 23 23 24 23 22 13 12 11 12 28 29 28 27 30 31 30 29 24 25 24 23 15 16 15 14 14 15 14 13 0 0 0 0 25 26 25 24 14 13 12 13 34 33 34 35 21 22 21 20 23 24 23 22 36 35 36 37 11 12 11 10 24 23 24 25 29 28 29 30
0 0 0 0 0 0 0 0 0 0 24 23 24 25 20 19 18 19 25 24 23 24 24 23 22 23 14 13 12 13 29 28 27 28 31 30 29 30 25 24 23 24 16 15 14 15 15 14 13 14 0 0 0 0 26 25 24 25 15 14 13 14 35 34 35 36 22 21 20 21 24 23 22 23 37 36 37 38 12 11 10 11 25 24 25 26 30 29 30 31
0 0 0 0 0 0 0 0 0 0 40 39 38 39 14 13 12 13 17 16 15 16 38 37 36 37 30 29 28 29 25 24 23 24 33 32 31 32 39 38 37 38 30 29 28 29 -999981 -999982 -999983 -999982 25 24 25 26 0 0 0 0 31 30 29 30 51 50 49 50 6 5 6 7 28 27 26 27 53 52 51 52 20 19 18 19 41 40 39 40 46 45 44 45
0 0 0 0 0 0 0 0 0 0 39 38 37 38 13 12 11 12 16 15 14 15 37 36 35 36 29 28 27 28 24 23 22 23 32 31 30 31 38 37 36 37 29 28 27 28 -999982 -999983 -999984 -999983 24 25 26 25 0 0 0 0 30 29 28 29 50 49 48 49 5 4 5 6 27 26 25 26 52 51 50 51 19 18 17 18 40 39 38 39 45 44 43 44
0 0 0 0 0 0 0 0 0 0 38 37 38 39 12 11 12 13 15 14 15 16 36 35 36 37 28 27 28 29 23 22 23 24 31 30 31 32 37 36 37 38 28 27 28 29 -999983 -999984 -999983 -999982 25 26 27 26 0 0 0 0 29 28 29 30 49 48 49 50 6 5 6 7 26 25 26 27 51 50 51 52 18 17 18 19 39 38 39 40 44 43 44 45
0 0 0 0 0 0 0 0 0 0 39 38 39 40 13 12 13 14 16 15 16 17 37 36 37 38 29 28 29 30 24 23 24 25 32 31 32 33 38 37 38 39 29 28 29 30 -999982 -999983 -999982 -999981 26 25 26 27 0 0 0 0 30 29 30 31 50 49 50 51 7 6 7 8 27 26 27 28 52 51 52 53 19 18 19 20 40 39 40 41 45 44 45 46
0 0 0 0 0 0 0 0 0 0 13 12 11 12 19 20 19 18 16 17 16 15 13 12 11 12 1 2 3 2 18 17 16 17 20 19 18 19 14 13 12 13 3 4 3 2 14 15 14 13 12 13 14 13 -999971 -999970 -999971 -999972 0 0 0 0 24 23 22 23 25 26 25 24 13 12 11 12 26 25 24 25 13 14 13 12 14 13 12 13 19 18 17 18
0 0 0 0 0 0 0 0 0 0 12 11 10 11 20 21 20 19 17 18 17 16 12 13 12 11 2 3 4 3 17 18 17 16 19 20 19 18 13 14 13 12 4 5 4 3 15 16 15 14 13 14 15 14 -999970 -999969 -999970 -999971 0 0 0 0 23 22 21 22 26 27 26 25 12 13 12 11 25 24 23 24 14 15 14 13 13 12 11 12 18 17 16 17
0 0 0 0 0 0 0 0 0 0 11 10 11 12 19 20 21 20 16 17 18 17 11 12 11 10 3 4 5 4 16 17 16 15 18 19 18 17 12 13 12 11 3 4 3 2 14 15 16 15 14 15 16 15 -999971 -999970 -999969 -999970 0 0 0 0 22 21 22 23 25 26 27 26 11 12 11 10 24 23 24 25 13 14 15 14 12 11 12 13 17 16 17 18
0 0 0 0 0 0 0 0 0 0 12 11 12 13 18 19 20 19 15 16 17 16 12 11 10 11 2 3 4 3 17 16 15 16 19 18 17 18 13 12 11 12 2 3 2 1 13 14 15 14 13 14 15 14 -999972 -999971 -999970 -999971 0 0 0 0 23 22 23 24 24 25 26 25 12 11 10 11 25 24 25 26 12 13 14 13 13 12 13 14 18 17 18 19
0 0 0 0 0 0 0 0 0 0 13 14 13 12 39 40 39 38 36 37 36 35 15 16 15 14 23 24 23 22 28 29 28 27 20 21 20 19 14 15 14 13 23 24 23 22 34 35 34 33 34 35 34 33 49 50 49 48 -999978 -999977 -999978 -999979 0 0 0 0 45 46 45 44 25 26 25 24 12 11 10 11 33 34 33 32 12 13 12 11 5 6 7 6
0 0 0 0 0 0 0 0 0 0 14 15 14 13 40 41 40 39 37 38 37 36 16 17 16 15 24 25 24 23 29 30 29 28 21 22 21 20 15 16 15 14 24 25 24 23 35 36 35 34 35 36 35 34 50 51 50 49 -999977 -999976 -999977 -999978 0 0 0 0 46 47 46 45 26 27 26 25 11 12 11 10 34 35 34 33 13 14 13 12 6 7 8 7
0 0 0 0 0 0 0 0 0 0 13 14 15 14 39 40 41 40 36 37 38 37 15 16 17 16 23 24 25 24 28 29 30 29 20 21 22 21 14 15 16 15 23 24 25 24 34 35 36 35 34 35 36 35 49 50 51 50 -999978 -999977 -999976 -999977 0 0 0 0 45 46 47 46 25 26 27 26 10 11 10 9 33 34 35 34 12 13 14 13 7 8 9 8
0 0 0 0 0 0 0 0 0 0 12 13 14 13 38 39 40 39 35 36 37 36 14 15 16 15 22 23 24 23 27 28 29 28 19 20 21 20 13 14 15 14 22 23 24 23 33 34 35 34 33 34 35 34 48 49 50 49 -999979 -999978 -999977 -999978 0 0 0 0 44 45 46 45 24 25 26 25 11 10 9 10 32 33 34 33 11 12 13 12 6 7 8 7
0 0 0 0 0 0 0 0 0 0 36 35 34 35 10 9 8 9 13 12 11 12 34 33 32 33 26 25 24 25 21 20 19 20 29 28 27 28 35 34 33 34 26 25 24 25 15 14 13 14 21 20 21 22 6 7 6 5 27 26 25 26 47 46 45 46 0 0 0 0 24 23 22 23 49 48 47 48 16 15 14 15 37 36 35 36 42 41 40 41
0 0 0 0 0 0 0 0 0 0 35 34 33 34 9 8 7 8 12 11 10 11 33 32 31 32 25 24 23 24 20 19 18 19 28 27 26 27 34 33 32 33 25 24 23 24 14 13 12 13 20 21 22 21 7 8 7 6 26 25 24 25 46 45 44 45 0 0 0 0 23 22 21 22 48 47 46 47 15 14 13 14 36 35 34 35 41 40 39 40
0 0 0 0 0 0 0 0 0 0 34 33 34 35 8 7 8 9 11 10 11 12 32 31 32 33 24 23 24 25 19 18 19 20 27 26 27 28 33 32 33 34 24 23 24 25 13 12 13 14 21 22 23 22 6 7 6 5 25 24 25 26 45 44 45 46 0 0 0 0 22 21 22 23 47 46 47 48 14 13 14 15 35 34 35 36 40 39 40 41
0 0 0 0 0 0 0 0 0 0 35 34 35 36 9 8 9 10 12 11 12 13 33 32 33 34 25 24 25 26 20 19 20 21 28 27 28 29 34 33 34 35 25 24 25 26 14 13 14 15 22 21 22 23 5 6 5 4 26 25 26 27 46 45 46 47 0 0 0 0 23 22 23 24 48 47 48 49 15 14 15 16 36 35 36 37 41 40 41 42
0 0 0 0 0 0 0 0 0 0 18 17 18 19 16 17 16 15 13 14 13 12 14 13 12 13 12 11 12 13 9 8 7 8 11 10 9 10 15 14 13 14 -999990 -999991 -999990 -999989 9 10 11 10 23 22 23 24 26 27 26 25 11 10 11 12 27 26 25 26 22 23 22 21 0 0 0 0 29 28 27 28 14 13 14 15 17 16 15 16 22 21 20 21
0 0 0 0 0 0 0 0 0 0 17 18 19 18 17 18 17 16 14 15 14 13 13 12 11 12 11 12 13 12 8 9 8 7 10 11 10 9 14 13 12 13 -999991 -999990 -999989 -999990 10 11 12 11 22 23 24 23 27 28 27 26 10 11 12 11 26 25 24 25 23 24 23 22 0 0 0 0 28 27 26 27 13 14 15 14 16 15 14 15 21 20 19 20
0 0 0 0 0 0 0 0 0 0 18 19 20 19 16 17 18 17 13 14 15 14 12 11 12 13 12 13 14 13 7 8 7 6 9 10 9 8 13 12 13 14 -999990 -999989 -999988 -999989 11 12 13 12 23 24 25 24 26 27 28 27 11 12 13 12 25 24 25 26 22 23 24 23 0 0 0 0 27 26 27 28 14 15 16 15 15 14 15 16 20 19 20 21
0 0 0 0 0 0 0 0 0 0 19 18 19 20 15 16 17 16 12 13 14 13 13 12 13 14 13 12 13 14 8 7 6 7 10 9 8 9 14 13 14 15 -999989 -999990 -999989 -999988 10 11 12 11 24 23 24 25 25 26 27 26 12 11 12 13 26 25 26 27 21 22 23 22 0 0 0 0 28 27 28 29 15 14 15 16 16 15 16 17 21 20 21 22
0 0 0 0 0 0 0 0 0 0 19 18 19 20 41 42 41 40 38 39 38 37 17 18 17 16 25 26 25 24 -999970 -999969 -999970 -999971 22 23 22 21 16 17 16 15 25 26 25 24 36 37 36 35 36 37 36 35 51 52 51 50 24 25 24 23 10 9 10 11 47 48 47 46 27 28 27 26 0 0 0 0 35 36 35 34 14 15 14 13 15 14 15 16
0 0 0 0 0 0 0 0 0 0 18 19 20 19 42 43 42 41 39 40 39 38 18 19 18 17 26 27 26 25 -999969 -999968 -999969 -999970 23 24 23 22 17 18 17 16 26 27 26 25 37 38 37 36 37 38 37 36 52 53 52 51 25 26 25 24 9 10 11 10 48 49 48 47 28 29 28 27 0 0 0 0 36 37 36 35 15 16 15 14 14 15 16 15
0 0 0 0 0 0 0 0 0 0 19 20 21 20 41 42 43 42 38 39 40 39 17 18 19 18 25 26 27 26 -999970 -999969 -999968 -999969 22 23 24 23 16 17 18 17 25 26 27 26 36 37 38 37 36 37 38 37 51 52 53 52 24 25 26 25 10 11 12 11 47 48 49 48 27 28 29 28 0 0 0 0 35 36 37 36 14 15 16 15 15 16 17 16
0 0 0 0 0 0 0 0 0 0 20 19 20 21 40 41 42 41 37 38 39 38 16 17 18 17 24 25 26 25 -999971 -999970 -999969 -999970 21 22 23 22 15 16 17 16 24 25 26 25 35 36 37 36 35 36 37 36 50 51 52 51 23 24 25 24 11 10 11 12 46 47 48 47 26 27 28 27 0 0 0 0 34 35 36 35 13 14 15 14 16 15 16 17
0 0 0 0 0 0 0 0 0 0 -999976 -999977 -999978 -999977 12 11 10 11 17 16 15 16 22 21 20 21 14 13 12 13 21 20 19 20 23 22 21 22 23 22 21 22 14 13 12 13 7 6 5 6 11 10 11 12 18 19 18 17 15 14 13 14 35 34 33 34 14 15 14 13 16 15 14 15 37 36 35 36 0 0 0 0 25 24 23 24 30 29 28 29
0 0 0 0 0 0 0 0 0 0 -999977 -999978 -999979 -999978 11 12 11 10 16 17 16 15 21 20 19 20 13 12 11 12 20 21 20 19 22 23 22 21 22 21 20 21 13 12 11 12 6 7 6 5 10 11 12 11 19 20 19 18 14 13 12 13 34 33 32 33 15 16 15 14 15 16 15 14 36 35 34 35 0 0 0 0 24 23 22 23 29 28 27 28
0 0 0 0 0 0 0 0 0 0 -999978 -999979 -999978 -999977 10 11 10 9 15 16 15 14 20 19 20 21 12 11 12 13 19 20 19 18 21 22 21 20 21 20 21 22 12 11 12 13 5 6 5 4 11 12 13 12 18 19 20 19 13 12 13 14 33 32 33 34 14 15 16 15 14 15 14 13 35 34 35 36 0 0 0 0 23 22 23 24 28 27 28 29
0 0 0 0 0 0 0 0 0 0 -999977 -999978 -999977 -999976 11 10 9 10 16 15 14 15 21 20 21 22 13 12 13 14 20 19 18 19 22 21 20 21 22 21 22 23 13 12 13 14 6 5 4 5 12 11 12 13 17 18 19 18 14 13 14 15 34 33 34 35 13 14 15 14 15 14 13 14 36 35 36 37 0 0 0 0 24 23 24 25 29 28 29 30
0 0 0 0 0 0 0 0 0 0 17 16 17 18 29 30 29 28 26 27 26 25 5 6 5 4 13 14 13 12 18 19 18 17 10 11 10 9 4 5 4 3 13 14 13 12 24 25 24 23 24 25 24 23 39 40 39 38 12 13 12 11 14 13 12 13 35 36 35 34 -999985 -999984 -999985 -999986 16 15 14 15 23 24 23 22 0 0 0 0 13 12 13 14
0 0 0 0 0 0 0 0 0 0 16 17 18 17 30 31 30 29 27 28 27 26 6 7 6 5 14 15 14 13 19 20 19 18 11 12 11 10 5 6 5 4 14 15 14 13 25 26 25 24 25 26 25 24 40 41 40 39 13 14 13 12 13 12 11 12 36 37 36 35 -999984 -999983 -999984 -999985 15 14 13 14 24 25 24 23 0 0 0 0 12 13 14 13
0 0 0 0 0 0 0 0 0 0 17 18 19 18 29 30 31 30 26 27 28 27 5 6 7 6 13 14 15 14 18 19 20 19 10 11 10 9 4 5 4 3 13 14 15 14 24 25 26 25 24 25 26 25 39 40 41 40 12 13 14 13 12 11 12 13 35 36 37 36 -999985 -999984 -999983 -999984 14 13 14 15 23 24 25 24 0 0 0 0 13 14 15 14
0 0 0 0 0 0 0 0 0 0 18 17 18 19 28 29 30 29 25 26 27 26 4 5 6 5 12 13 14 13 17 18 19 18 9 10 9 8 3 4 3 2 12 13 14 13 23 24 25 24 23 24 25 24 38 39 40 39 11 12 13 12 13 12 13 14 34 35 36 35 -999986 -999985 -999984 -999985 15 14 15 16 22 23 24 23 0 0 0 0 14 13 14 15
0 0 0 0 0 0 0 0 0 0 8 9 8 7 34 35 34 33 -999969 -999968 -999969 -999970 16 15 14 15 18 19 18 17 23 24 23 22 23 22 21 22 17 16 15 16 18 19 18 17 29 30 29 28 29 30 29 28 44 45 44 43 17 18 17 16 9 8 7 8 40 41 40 39 20 21 20 19 17 16 15 16 28 29 28 27 15 14 13 14 0 0 0 0
0 0 0 0 0 0 0 0 0 0 9 10 9 8 35 36 35 34 -999968 -999967 -999968 -999969 15 16 15 14 19 20 19 18 24 25 24 23 22 23 22 21 16 17 16 15 19 20 19 18 30 31 30 29 30 31 30 29 45 46 45 44 18 19 18 17 8 7 6 7 41 42 41 40 21 22 21 20 16 17 16 15 29 30 29 28 14 15 14 13 0 0 0 0
0 0 0 0 0 0 0 0 0 0 8 9 10 9 34 35 36 35 -999969 -999968 -999967 -999968 14 15 14 13 18 19 20 19 23 24 25 24 21 22 21 20 15 16 15 14 18 19 20 19 29 30 31 30 29 30 31 30 44 45 46 45 17 18 19 18 7 6 5 6 40 41 42 41 20 21 22 21 15 16 15 14 28 29 30 29 13 14 13 12 0 0 0 0
0 0 0 0 0 0 0 0 0 0 7 8 9 8 33 34 35 34 -999970 -999969 -999968 -999969 15 14 13 14 17 18 19 18 22 23 24 23 22 21 20 21 16 15 14 15 17 18 19 18 28 29 30 29 28 29 30 29 43 44 45 44 16 17 18 17 8 7 6 7 39 40 41 40 19 20 21 20 16 15 14 15 27 28 29 28 14 13 12 13 0 0 0 0
GTSP_SET_SECTION
1 1 -1
2 2 -1
3 3 -1
4 4 -1
5 5 -1
6 6 -1
7 7 -1
8 8 -1
9 9 -1
10 10 -1
11 11 12 13 14 -1
12 15 16 17 18 -1
13 19 20 21 22 -1
14 23 24 25 26 -1
15 27 28 29 30 -1
16 31 32 33 34 -1
17 35 36 37 38 -1
18 39 40 41 42 -1
19 43 44 45 46 -1
20 47 48 49 50 -1
21 51 52 53 54 -1
22 55 56 57 58 -1
23 59 60 61 62 -1
24 63 64 65 66 -1
25 67 68 69 70 -1
26 71 72 73 74 -1
27 75 76 77 78 -1
28 79 80 81 82 -1
29 83 84 85 86 -1
30 87 88 89 90 -1
