RobustCbss/EGSTP_runtime_files/empty-32-32_p_safe_0.8_typeOfTest_1_mEgtsp.tour
NAME : mEgtspf.99.tour
COMMENT : Length = 99
COMMENT : Found by GLKH [Keld Helsgaun] Wed May  7 12:11:22 2025
TYPE : TOUR
DIMENSION : 30
TOUR_SECTION
1
2
85
73
46
39
8
81
12
7
3
87
22
4
76
31
16
29
64
60
58
49
38
23
67
6
10
5
9
54
-1
EOF
